NAME : set3.1848083.tour
COMMENT : Length = 1848083
TYPE : TOUR
DIMENSION : 121
TOUR_SECTION
1
4
86
83
115
79
28
71
9
65
96
14
6
62
84
22
61
27
52
10
66
116
76
42
100
120
13
41
69
74
87
39
11
45
55
101
44
30
56
63
78
70
85
89
117
113
29
121
68
16
114
33
103
43
15
111
2
98
54
47
59
60
109
108
23
40
92
80
64
3
34
38
46
97
118
50
75
26
21
110
106
36
20
49
73
37
24
17
104
72
12
53
77
95
32
82
5
93
18
94
99
102
8
90
81
31
67
105
91
19
107
7
112
48
51
88
57
25
119
58
35
-1
EOF
